param n := 120;
param c := 1000;
param : V : p w :=
   0	 367	 357
   1	 281	 271
   2	 382	 372
   3	 491	 481
   4	 261	 251
   5	 278	 268
   6	 439	 429
   7	 295	 285
   8	 296	 286
   9	 464	 454
  10	 267	 257
  11	 299	 289
  12	 408	 398
  13	 278	 268
  14	 344	 334
  15	 392	 382
  16	 274	 264
  17	 364	 354
  18	 437	 427
  19	 261	 251
  20	 332	 322
  21	 486	 476
  22	 261	 251
  23	 283	 273
  24	 374	 364
  25	 286	 276
  26	 370	 360
  27	 416	 406
  28	 300	 290
  29	 314	 304
  30	 361	 351
  31	 290	 280
  32	 379	 369
  33	 428	 418
  34	 280	 270
  35	 322	 312
  36	 385	 375
  37	 319	 309
  38	 326	 316
  39	 421	 411
  40	 298	 288
  41	 311	 301
  42	 434	 424
  43	 271	 261
  44	 325	 315
  45	 472	 462
  46	 267	 257
  47	 291	 281
  48	 421	 411
  49	 294	 284
  50	 315	 305
  51	 453	 443
  52	 278	 268
  53	 299	 289
  54	 380	 370
  55	 294	 284
  56	 356	 346
  57	 470	 460
  58	 261	 251
  59	 299	 289
  60	 407	 397
  61	 267	 257
  62	 356	 346
  63	 389	 379
  64	 306	 296
  65	 335	 325
  66	 457	 447
  67	 279	 269
  68	 294	 284
  69	 471	 461
  70	 269	 259
  71	 290	 280
  72	 504	 494
  73	 261	 251
  74	 265	 255
  75	 493	 483
  76	 260	 250
  77	 277	 267
  78	 485	 475
  79	 268	 258
  80	 277	 267
  81	 412	 402
  82	 287	 277
  83	 331	 321
  84	 405	 395
  85	 279	 269
  86	 346	 336
  87	 446	 436
  88	 265	 255
  89	 319	 309
  90	 428	 418
  91	 295	 285
  92	 307	 297
  93	 418	 408
  94	 276	 266
  95	 336	 326
  96	 368	 358
  97	 274	 264
  98	 388	 378
  99	 481	 471
 100	 271	 261
 101	 278	 268
 102	 470	 460
 103	 260	 250
 104	 300	 290
 105	 378	 368
 106	 325	 315
 107	 327	 317
 108	 440	 430
 109	 279	 269
 110	 311	 301
 111	 487	 477
 112	 262	 252
 113	 281	 271
 114	 459	 449
 115	 273	 263
 116	 298	 288
 117	 493	 483
 118	 264	 254
 119	 273	 263
;

set E :=
   0	   2
   0	   3
   0	   5
   0	   6
   0	   9
   0	  10
   0	  11
   0	  12
   0	  15
   0	  19
   0	  22
   0	  23
   0	  24
   0	  33
   0	  34
   0	  38
   0	  42
   0	  45
   0	  49
   0	  50
   0	  51
   0	  52
   0	  54
   0	  58
   0	  59
   0	  60
   0	  64
   0	  66
   0	  68
   0	  69
   0	  74
   0	  81
   0	  82
   0	  86
   0	  87
   0	  88
   0	  96
   0	  97
   0	 100
   0	 102
   0	 104
   0	 110
   0	 113
   0	 114
   0	 117
   0	 118
   1	   6
   1	   7
   1	   9
   1	  12
   1	  18
   1	  20
   1	  21
   1	  23
   1	  27
   1	  29
   1	  30
   1	  33
   1	  34
   1	  37
   1	  38
   1	  42
   1	  43
   1	  46
   1	  48
   1	  50
   1	  51
   1	  52
   1	  56
   1	  59
   1	  61
   1	  66
   1	  69
   1	  75
   1	  81
   1	  82
   1	  83
   1	  85
   1	  86
   1	  89
   1	  90
   1	  92
   1	  93
   1	  94
   1	  97
   1	  99
   1	 104
   1	 106
   1	 107
   1	 109
   1	 110
   1	 113
   1	 114
   1	 115
   1	 117
   1	 118
   2	   4
   2	   5
   2	   6
   2	   9
   2	  10
   2	  15
   2	  16
   2	  19
   2	  20
   2	  25
   2	  29
   2	  33
   2	  39
   2	  40
   2	  41
   2	  43
   2	  49
   2	  54
   2	  57
   2	  60
   2	  64
   2	  69
   2	  70
   2	  75
   2	  78
   2	  79
   2	  80
   2	  84
   2	  88
   2	  93
   2	  95
   2	  96
   2	  98
   2	 100
   2	 101
   2	 102
   2	 104
   2	 106
   2	 111
   2	 112
   2	 115
   3	   8
   3	   9
   3	  12
   3	  14
   3	  15
   3	  19
   3	  20
   3	  22
   3	  23
   3	  29
   3	  32
   3	  34
   3	  35
   3	  39
   3	  42
   3	  43
   3	  44
   3	  47
   3	  51
   3	  53
   3	  58
   3	  59
   3	  61
   3	  67
   3	  71
   3	  74
   3	  76
   3	  77
   3	  80
   3	  81
   3	  82
   3	  83
   3	  94
   3	  95
   3	  96
   3	  98
   3	 104
   3	 106
   3	 107
   3	 113
   3	 117
   4	   5
   4	   7
   4	   9
   4	  10
   4	  14
   4	  15
   4	  18
   4	  21
   4	  23
   4	  24
   4	  27
   4	  28
   4	  36
   4	  37
   4	  38
   4	  40
   4	  47
   4	  49
   4	  50
   4	  51
   4	  57
   4	  58
   4	  62
   4	  63
   4	  64
   4	  65
   4	  66
   4	  67
   4	  70
   4	  71
   4	  72
   4	  81
   4	  82
   4	  86
   4	  87
   4	  89
   4	  90
   4	  91
   4	  94
   4	  96
   4	  97
   4	 100
   4	 103
   4	 104
   4	 105
   4	 106
   4	 108
   4	 109
   4	 112
   4	 118
   5	  10
   5	  13
   5	  14
   5	  15
   5	  16
   5	  17
   5	  19
   5	  20
   5	  22
   5	  23
   5	  27
   5	  30
   5	  31
   5	  32
   5	  33
   5	  36
   5	  37
   5	  39
   5	  42
   5	  49
   5	  53
   5	  55
   5	  59
   5	  62
   5	  63
   5	  66
   5	  67
   5	  68
   5	  71
   5	  72
   5	  76
   5	  78
   5	  82
   5	  84
   5	  89
   5	  93
   5	  96
   5	 105
   5	 106
   5	 107
   5	 109
   5	 112
   5	 116
   5	 118
   5	 119
   6	   9
   6	  10
   6	  17
   6	  19
   6	  22
   6	  25
   6	  30
   6	  33
   6	  34
   6	  35
   6	  36
   6	  37
   6	  40
   6	  43
   6	  45
   6	  46
   6	  48
   6	  50
   6	  51
   6	  53
   6	  55
   6	  57
   6	  58
   6	  64
   6	  66
   6	  67
   6	  69
   6	  70
   6	  71
   6	  74
   6	  77
   6	  80
   6	  81
   6	  82
   6	  84
   6	  87
   6	  88
   6	  92
   6	  93
   6	  96
   6	  99
   6	 100
   6	 102
   6	 103
   6	 106
   6	 108
   6	 109
   6	 111
   6	 116
   6	 118
   6	 119
   7	   9
   7	  10
   7	  11
   7	  12
   7	  13
   7	  14
   7	  15
   7	  18
   7	  19
   7	  24
   7	  27
   7	  30
   7	  31
   7	  32
   7	  34
   7	  35
   7	  40
   7	  42
   7	  45
   7	  47
   7	  48
   7	  49
   7	  55
   7	  58
   7	  59
   7	  60
   7	  66
   7	  67
   7	  68
   7	  69
   7	  70
   7	  72
   7	  73
   7	  74
   7	  76
   7	  77
   7	  78
   7	  79
   7	  80
   7	  81
   7	  82
   7	  86
   7	  90
   7	  91
   7	  94
   7	 100
   7	 103
   7	 105
   7	 106
   7	 108
   7	 109
   7	 116
   7	 118
   8	  10
   8	  14
   8	  15
   8	  16
   8	  23
   8	  27
   8	  30
   8	  31
   8	  33
   8	  41
   8	  43
   8	  47
   8	  49
   8	  50
   8	  51
   8	  54
   8	  56
   8	  57
   8	  59
   8	  60
   8	  61
   8	  62
   8	  63
   8	  64
   8	  65
   8	  66
   8	  67
   8	  72
   8	  77
   8	  78
   8	  82
   8	  84
   8	  86
   8	  88
   8	  91
   8	  95
   8	 100
   8	 105
   8	 106
   8	 107
   8	 108
   8	 111
   8	 112
   8	 114
   8	 115
   8	 117
   9	  12
   9	  13
   9	  14
   9	  15
   9	  25
   9	  26
   9	  28
   9	  29
   9	  32
   9	  33
   9	  36
   9	  39
   9	  43
   9	  45
   9	  54
   9	  56
   9	  61
   9	  64
   9	  67
   9	  70
   9	  76
   9	  78
   9	  88
   9	  89
   9	  92
   9	  97
   9	 105
   9	 106
   9	 110
   9	 113
   9	 114
   9	 116
  10	  11
  10	  13
  10	  15
  10	  17
  10	  21
  10	  22
  10	  23
  10	  32
  10	  35
  10	  37
  10	  38
  10	  40
  10	  42
  10	  43
  10	  47
  10	  48
  10	  54
  10	  55
  10	  57
  10	  60
  10	  61
  10	  62
  10	  63
  10	  70
  10	  71
  10	  73
  10	  78
  10	  80
  10	  81
  10	  85
  10	  86
  10	  88
  10	  90
  10	  92
  10	  95
  10	  96
  10	  98
  10	  99
  10	 100
  10	 103
  10	 105
  10	 106
  10	 107
  10	 109
  10	 110
  10	 114
  10	 117
  11	  15
  11	  17
  11	  20
  11	  22
  11	  33
  11	  34
  11	  35
  11	  37
  11	  39
  11	  40
  11	  41
  11	  42
  11	  43
  11	  44
  11	  46
  11	  47
  11	  52
  11	  54
  11	  55
  11	  60
  11	  61
  11	  63
  11	  65
  11	  66
  11	  71
  11	  72
  11	  73
  11	  76
  11	  77
  11	  78
  11	  79
  11	  80
  11	  81
  11	  85
  11	  86
  11	  89
  11	  90
  11	  93
  11	  94
  11	  99
  11	 101
  11	 104
  11	 105
  11	 113
  11	 114
  11	 117
  11	 119
  12	  13
  12	  17
  12	  18
  12	  20
  12	  25
  12	  29
  12	  30
  12	  31
  12	  33
  12	  35
  12	  36
  12	  37
  12	  39
  12	  43
  12	  44
  12	  49
  12	  56
  12	  57
  12	  60
  12	  61
  12	  62
  12	  63
  12	  64
  12	  66
  12	  68
  12	  69
  12	  71
  12	  73
  12	  74
  12	  79
  12	  80
  12	  83
  12	  85
  12	  89
  12	  90
  12	  91
  12	  97
  12	  99
  12	 103
  12	 104
  12	 105
  12	 107
  12	 109
  12	 111
  12	 112
  12	 113
  12	 114
  12	 115
  12	 116
  12	 118
  13	  18
  13	  21
  13	  22
  13	  26
  13	  33
  13	  35
  13	  36
  13	  41
  13	  42
  13	  43
  13	  45
  13	  52
  13	  53
  13	  55
  13	  56
  13	  58
  13	  59
  13	  60
  13	  63
  13	  65
  13	  66
  13	  67
  13	  68
  13	  71
  13	  73
  13	  76
  13	  81
  13	  82
  13	  83
  13	  84
  13	  85
  13	  87
  13	  89
  13	  91
  13	  94
  13	  95
  13	  96
  13	 101
  13	 103
  13	 107
  13	 112
  13	 113
  13	 114
  13	 115
  13	 117
  13	 119
  14	  15
  14	  17
  14	  18
  14	  19
  14	  28
  14	  34
  14	  37
  14	  46
  14	  47
  14	  51
  14	  53
  14	  54
  14	  61
  14	  64
  14	  65
  14	  68
  14	  72
  14	  75
  14	  77
  14	  79
  14	  80
  14	  81
  14	  85
  14	  86
  14	  89
  14	  91
  14	  94
  14	  97
  14	 101
  14	 102
  14	 105
  14	 106
  14	 107
  14	 113
  14	 114
  14	 115
  14	 116
  14	 117
  15	  19
  15	  20
  15	  23
  15	  26
  15	  27
  15	  28
  15	  29
  15	  30
  15	  33
  15	  43
  15	  44
  15	  45
  15	  48
  15	  52
  15	  53
  15	  56
  15	  57
  15	  60
  15	  61
  15	  67
  15	  68
  15	  73
  15	  78
  15	  80
  15	  81
  15	  82
  15	  85
  15	  86
  15	  88
  15	  89
  15	  93
  15	  94
  15	  95
  15	  97
  15	 101
  15	 103
  15	 104
  15	 108
  15	 114
  15	 115
  16	  17
  16	  18
  16	  20
  16	  21
  16	  27
  16	  28
  16	  32
  16	  33
  16	  34
  16	  37
  16	  38
  16	  40
  16	  43
  16	  44
  16	  47
  16	  50
  16	  52
  16	  53
  16	  58
  16	  64
  16	  66
  16	  67
  16	  68
  16	  69
  16	  71
  16	  72
  16	  75
  16	  78
  16	  79
  16	  84
  16	  85
  16	  89
  16	  91
  16	 100
  16	 105
  16	 108
  16	 113
  16	 115
  16	 116
  16	 118
  17	  20
  17	  26
  17	  29
  17	  32
  17	  33
  17	  34
  17	  35
  17	  36
  17	  44
  17	  48
  17	  50
  17	  52
  17	  53
  17	  59
  17	  60
  17	  61
  17	  62
  17	  64
  17	  66
  17	  68
  17	  71
  17	  72
  17	  73
  17	  75
  17	  76
  17	  78
  17	  79
  17	  81
  17	  83
  17	  86
  17	  88
  17	  91
  17	  92
  17	  94
  17	  97
  17	 100
  17	 101
  17	 102
  17	 103
  17	 104
  17	 105
  17	 116
  17	 117
  18	  19
  18	  21
  18	  23
  18	  24
  18	  25
  18	  28
  18	  33
  18	  36
  18	  39
  18	  40
  18	  44
  18	  47
  18	  50
  18	  55
  18	  57
  18	  58
  18	  63
  18	  67
  18	  68
  18	  69
  18	  73
  18	  78
  18	  79
  18	  80
  18	  83
  18	  84
  18	  88
  18	  89
  18	  91
  18	  92
  18	  94
  18	  99
  18	 101
  18	 106
  18	 108
  18	 111
  18	 112
  18	 113
  19	  23
  19	  28
  19	  32
  19	  36
  19	  40
  19	  42
  19	  44
  19	  49
  19	  53
  19	  62
  19	  63
  19	  64
  19	  65
  19	  69
  19	  73
  19	  75
  19	  77
  19	  79
  19	  95
  19	  96
  19	 103
  19	 104
  19	 106
  19	 108
  19	 109
  19	 110
  19	 112
  19	 115
  19	 116
  19	 117
  19	 118
  19	 119
  20	  25
  20	  26
  20	  31
  20	  32
  20	  33
  20	  42
  20	  43
  20	  44
  20	  45
  20	  48
  20	  50
  20	  52
  20	  53
  20	  54
  20	  65
  20	  69
  20	  72
  20	  73
  20	  74
  20	  76
  20	  81
  20	  83
  20	  85
  20	  88
  20	  89
  20	  92
  20	  93
  20	  96
  20	  99
  20	 104
  20	 105
  20	 108
  20	 117
  21	  26
  21	  28
  21	  31
  21	  33
  21	  35
  21	  39
  21	  40
  21	  42
  21	  44
  21	  45
  21	  46
  21	  48
  21	  51
  21	  52
  21	  53
  21	  56
  21	  64
  21	  66
  21	  72
  21	  73
  21	  77
  21	  78
  21	  85
  21	  86
  21	  88
  21	  91
  21	  92
  21	  94
  21	  99
  21	 100
  21	 101
  21	 103
  21	 104
  21	 105
  21	 108
  21	 109
  21	 112
  21	 114
  21	 117
  21	 118
  22	  28
  22	  35
  22	  39
  22	  40
  22	  48
  22	  49
  22	  51
  22	  52
  22	  57
  22	  59
  22	  67
  22	  68
  22	  69
  22	  72
  22	  73
  22	  76
  22	  81
  22	  84
  22	  91
  22	  95
  22	  96
  22	  97
  22	  98
  22	 101
  22	 102
  22	 106
  22	 108
  22	 109
  22	 110
  22	 111
  22	 112
  22	 113
  23	  24
  23	  25
  23	  27
  23	  29
  23	  33
  23	  34
  23	  36
  23	  39
  23	  40
  23	  42
  23	  45
  23	  48
  23	  51
  23	  55
  23	  56
  23	  58
  23	  61
  23	  62
  23	  63
  23	  64
  23	  66
  23	  71
  23	  72
  23	  73
  23	  75
  23	  78
  23	  82
  23	  83
  23	  87
  23	  90
  23	  91
  23	  93
  23	  95
  23	  97
  23	  98
  23	 101
  23	 102
  23	 103
  23	 105
  23	 107
  23	 109
  23	 112
  23	 115
  23	 116
  24	  27
  24	  28
  24	  31
  24	  35
  24	  46
  24	  48
  24	  49
  24	  51
  24	  54
  24	  56
  24	  60
  24	  61
  24	  62
  24	  65
  24	  67
  24	  70
  24	  72
  24	  73
  24	  74
  24	  75
  24	  77
  24	  82
  24	  85
  24	  86
  24	  87
  24	  89
  24	  93
  24	  97
  24	 100
  24	 103
  24	 109
  24	 110
  24	 111
  24	 112
  24	 115
  24	 119
  25	  26
  25	  27
  25	  28
  25	  29
  25	  41
  25	  43
  25	  44
  25	  46
  25	  49
  25	  50
  25	  55
  25	  62
  25	  64
  25	  65
  25	  68
  25	  72
  25	  75
  25	  77
  25	  80
  25	  82
  25	  86
  25	  88
  25	  89
  25	  90
  25	  92
  25	  95
  25	  98
  25	 101
  25	 104
  25	 105
  25	 106
  25	 107
  25	 108
  25	 113
  25	 114
  25	 118
  25	 119
  26	  32
  26	  34
  26	  35
  26	  36
  26	  38
  26	  41
  26	  43
  26	  51
  26	  53
  26	  64
  26	  65
  26	  66
  26	  68
  26	  69
  26	  70
  26	  71
  26	  72
  26	  78
  26	  82
  26	  84
  26	  88
  26	  90
  26	  93
  26	  96
  26	  97
  26	  98
  26	  99
  26	 104
  26	 106
  26	 114
  27	  29
  27	  33
  27	  36
  27	  39
  27	  40
  27	  45
  27	  47
  27	  49
  27	  52
  27	  54
  27	  55
  27	  56
  27	  57
  27	  60
  27	  61
  27	  62
  27	  63
  27	  65
  27	  66
  27	  68
  27	  70
  27	  71
  27	  73
  27	  74
  27	  75
  27	  77
  27	  79
  27	  80
  27	  81
  27	  82
  27	  83
  27	  84
  27	  85
  27	  86
  27	  88
  27	  92
  27	  94
  27	  95
  27	  96
  27	  99
  27	 103
  27	 104
  27	 106
  27	 107
  27	 108
  27	 109
  27	 110
  27	 111
  27	 112
  27	 113
  27	 114
  27	 117
  27	 118
  27	 119
  28	  30
  28	  31
  28	  33
  28	  34
  28	  38
  28	  40
  28	  45
  28	  46
  28	  47
  28	  50
  28	  51
  28	  52
  28	  57
  28	  58
  28	  62
  28	  64
  28	  66
  28	  71
  28	  72
  28	  75
  28	  78
  28	  79
  28	  81
  28	  86
  28	  87
  28	  89
  28	  90
  28	  94
  28	 101
  28	 106
  28	 107
  28	 110
  28	 114
  28	 116
  28	 117
  28	 118
  28	 119
  29	  30
  29	  33
  29	  34
  29	  35
  29	  41
  29	  43
  29	  44
  29	  45
  29	  47
  29	  48
  29	  49
  29	  50
  29	  51
  29	  54
  29	  56
  29	  59
  29	  60
  29	  65
  29	  69
  29	  70
  29	  72
  29	  77
  29	  79
  29	  80
  29	  82
  29	  84
  29	  85
  29	  86
  29	  87
  29	  89
  29	  91
  29	 101
  29	 102
  29	 106
  29	 107
  29	 109
  29	 110
  29	 112
  29	 113
  29	 114
  29	 115
  29	 118
  30	  31
  30	  32
  30	  40
  30	  42
  30	  46
  30	  47
  30	  49
  30	  51
  30	  52
  30	  53
  30	  57
  30	  59
  30	  63
  30	  66
  30	  70
  30	  73
  30	  77
  30	  78
  30	  79
  30	  80
  30	  83
  30	  87
  30	  88
  30	  89
  30	  91
  30	  92
  30	  94
  30	  95
  30	  98
  30	 100
  30	 107
  30	 108
  30	 111
  30	 112
  30	 113
  30	 114
  30	 117
  30	 118
  31	  33
  31	  37
  31	  38
  31	  50
  31	  51
  31	  57
  31	  58
  31	  61
  31	  64
  31	  69
  31	  71
  31	  73
  31	  74
  31	  75
  31	  78
  31	  81
  31	  82
  31	  85
  31	  87
  31	  88
  31	  97
  31	  98
  31	 102
  31	 104
  31	 105
  31	 106
  31	 108
  31	 110
  31	 113
  31	 119
  32	  36
  32	  38
  32	  41
  32	  44
  32	  47
  32	  52
  32	  54
  32	  56
  32	  63
  32	  67
  32	  68
  32	  70
  32	  73
  32	  75
  32	  82
  32	  90
  32	  94
  32	  98
  32	  99
  32	 100
  32	 105
  32	 111
  32	 118
  32	 119
  33	  36
  33	  38
  33	  40
  33	  42
  33	  46
  33	  48
  33	  50
  33	  52
  33	  53
  33	  54
  33	  57
  33	  59
  33	  61
  33	  62
  33	  64
  33	  65
  33	  67
  33	  70
  33	  71
  33	  74
  33	  76
  33	  77
  33	  82
  33	  83
  33	  84
  33	  86
  33	  88
  33	  90
  33	  94
  33	  98
  33	 100
  33	 101
  33	 106
  33	 110
  33	 112
  33	 116
  33	 118
  33	 119
  34	  36
  34	  39
  34	  40
  34	  47
  34	  48
  34	  49
  34	  51
  34	  55
  34	  56
  34	  59
  34	  60
  34	  61
  34	  62
  34	  64
  34	  65
  34	  71
  34	  72
  34	  73
  34	  80
  34	  81
  34	  82
  34	  85
  34	  86
  34	  91
  34	  97
  34	  99
  34	 102
  34	 103
  34	 106
  34	 110
  34	 114
  34	 115
  35	  36
  35	  39
  35	  40
  35	  43
  35	  44
  35	  53
  35	  54
  35	  58
  35	  62
  35	  63
  35	  64
  35	  65
  35	  69
  35	  70
  35	  71
  35	  72
  35	  75
  35	  76
  35	  77
  35	  78
  35	  82
  35	  83
  35	  86
  35	  88
  35	  89
  35	  94
  35	  95
  35	  96
  35	 101
  35	 102
  35	 103
  35	 107
  35	 108
  35	 112
  35	 119
  36	  38
  36	  40
  36	  44
  36	  47
  36	  51
  36	  52
  36	  54
  36	  56
  36	  57
  36	  64
  36	  65
  36	  66
  36	  70
  36	  72
  36	  73
  36	  74
  36	  75
  36	  79
  36	  81
  36	  82
  36	  85
  36	  95
  36	  96
  36	  99
  36	 101
  36	 102
  36	 107
  36	 110
  36	 112
  36	 116
  36	 118
  37	  38
  37	  41
  37	  44
  37	  46
  37	  48
  37	  49
  37	  53
  37	  54
  37	  57
  37	  58
  37	  59
  37	  61
  37	  71
  37	  79
  37	  82
  37	  85
  37	  86
  37	  87
  37	  93
  37	  94
  37	  95
  37	  96
  37	  99
  37	 100
  37	 103
  37	 109
  37	 111
  37	 113
  37	 114
  37	 116
  37	 117
  38	  39
  38	  41
  38	  43
  38	  44
  38	  49
  38	  51
  38	  52
  38	  54
  38	  56
  38	  59
  38	  66
  38	  69
  38	  70
  38	  71
  38	  73
  38	  75
  38	  78
  38	  80
  38	  84
  38	  85
  38	  87
  38	  88
  38	  89
  38	  90
  38	  93
  38	  94
  38	  96
  38	  97
  38	  98
  38	 102
  38	 103
  38	 108
  38	 110
  38	 112
  38	 114
  38	 115
  38	 117
  38	 119
  39	  40
  39	  41
  39	  43
  39	  47
  39	  49
  39	  51
  39	  52
  39	  53
  39	  54
  39	  58
  39	  60
  39	  63
  39	  64
  39	  66
  39	  69
  39	  70
  39	  72
  39	  73
  39	  78
  39	  79
  39	  82
  39	  84
  39	  85
  39	  86
  39	  88
  39	  90
  39	  92
  39	  97
  39	  98
  39	 101
  39	 102
  39	 103
  39	 108
  39	 113
  39	 114
  39	 115
  39	 116
  39	 119
  40	  42
  40	  46
  40	  50
  40	  52
  40	  53
  40	  61
  40	  62
  40	  64
  40	  65
  40	  68
  40	  71
  40	  72
  40	  75
  40	  76
  40	  77
  40	  82
  40	  85
  40	  89
  40	  94
  40	  95
  40	  97
  40	 105
  40	 106
  40	 108
  40	 111
  40	 114
  40	 115
  40	 116
  40	 118
  41	  43
  41	  44
  41	  50
  41	  52
  41	  54
  41	  55
  41	  57
  41	  58
  41	  62
  41	  64
  41	  67
  41	  69
  41	  70
  41	  73
  41	  75
  41	  77
  41	  79
  41	  81
  41	  82
  41	  83
  41	  88
  41	  89
  41	  90
  41	  93
  41	  95
  41	  96
  41	  97
  41	  99
  41	 102
  41	 107
  41	 109
  41	 110
  41	 113
  41	 118
  42	  43
  42	  45
  42	  46
  42	  47
  42	  49
  42	  51
  42	  54
  42	  55
  42	  57
  42	  60
  42	  63
  42	  64
  42	  66
  42	  67
  42	  68
  42	  71
  42	  73
  42	  74
  42	  75
  42	  79
  42	  83
  42	  85
  42	  90
  42	  91
  42	  96
  42	  97
  42	  99
  42	 100
  42	 103
  42	 105
  42	 108
  42	 109
  42	 110
  42	 111
  42	 112
  42	 114
  42	 116
  42	 118
  42	 119
  43	  44
  43	  45
  43	  49
  43	  50
  43	  53
  43	  56
  43	  57
  43	  60
  43	  63
  43	  64
  43	  67
  43	  68
  43	  69
  43	  71
  43	  75
  43	  80
  43	  81
  43	  87
  43	  89
  43	  91
  43	 106
  43	 108
  43	 114
  43	 117
  44	  46
  44	  48
  44	  50
  44	  53
  44	  55
  44	  56
  44	  57
  44	  59
  44	  63
  44	  70
  44	  72
  44	  74
  44	  75
  44	  76
  44	  81
  44	  88
  44	  90
  44	  91
  44	  93
  44	  94
  44	  98
  44	  99
  44	 102
  44	 106
  44	 109
  44	 110
  44	 116
  44	 117
  44	 119
  45	  47
  45	  48
  45	  50
  45	  52
  45	  55
  45	  57
  45	  59
  45	  61
  45	  62
  45	  63
  45	  76
  45	  80
  45	  81
  45	  83
  45	  85
  45	  91
  45	  92
  45	  93
  45	  94
  45	  95
  45	  98
  45	  99
  45	 100
  45	 101
  45	 105
  45	 107
  45	 108
  45	 109
  45	 110
  45	 113
  45	 117
  46	  47
  46	  49
  46	  50
  46	  53
  46	  54
  46	  58
  46	  61
  46	  66
  46	  68
  46	  69
  46	  71
  46	  73
  46	  75
  46	  77
  46	  80
  46	  83
  46	  84
  46	  85
  46	  88
  46	  89
  46	  91
  46	  94
  46	  97
  46	  99
  46	 100
  46	 103
  46	 107
  46	 109
  46	 110
  46	 113
  46	 114
  46	 115
  46	 116
  46	 119
  47	  55
  47	  58
  47	  59
  47	  61
  47	  62
  47	  64
  47	  69
  47	  70
  47	  71
  47	  72
  47	  73
  47	  76
  47	  78
  47	  79
  47	  80
  47	  81
  47	  82
  47	  83
  47	  84
  47	  87
  47	  89
  47	  90
  47	  92
  47	  93
  47	  94
  47	  98
  47	  99
  47	 103
  47	 104
  47	 106
  47	 108
  47	 109
  47	 110
  47	 113
  47	 115
  47	 118
  47	 119
  48	  49
  48	  50
  48	  51
  48	  53
  48	  55
  48	  57
  48	  59
  48	  61
  48	  65
  48	  66
  48	  69
  48	  72
  48	  73
  48	  74
  48	  76
  48	  77
  48	  80
  48	  81
  48	  82
  48	  85
  48	  86
  48	  89
  48	  93
  48	  97
  48	 100
  48	 101
  48	 103
  48	 107
  48	 108
  48	 110
  48	 112
  48	 116
  48	 118
  48	 119
  49	  56
  49	  57
  49	  58
  49	  59
  49	  61
  49	  63
  49	  65
  49	  66
  49	  71
  49	  76
  49	  79
  49	  80
  49	  82
  49	  83
  49	  88
  49	  90
  49	  94
  49	 104
  49	 106
  49	 107
  49	 112
  49	 113
  49	 114
  49	 117
  49	 119
  50	  51
  50	  52
  50	  56
  50	  58
  50	  59
  50	  60
  50	  62
  50	  63
  50	  70
  50	  71
  50	  74
  50	  75
  50	  76
  50	  78
  50	  79
  50	  85
  50	  87
  50	  89
  50	  90
  50	  91
  50	  92
  50	  95
  50	  96
  50	 108
  50	 110
  50	 111
  50	 112
  50	 115
  50	 118
  50	 119
  51	  52
  51	  53
  51	  58
  51	  60
  51	  61
  51	  62
  51	  63
  51	  64
  51	  69
  51	  71
  51	  74
  51	  76
  51	  79
  51	  89
  51	  90
  51	  92
  51	  98
  51	  99
  51	 100
  51	 102
  51	 103
  51	 105
  51	 106
  51	 107
  51	 111
  51	 112
  51	 115
  51	 116
  51	 119
  52	  53
  52	  63
  52	  64
  52	  66
  52	  71
  52	  72
  52	  73
  52	  77
  52	  78
  52	  85
  52	  92
  52	  93
  52	  94
  52	  99
  52	 105
  52	 106
  52	 107
  52	 108
  52	 111
  52	 113
  52	 115
  52	 116
  52	 118
  53	  57
  53	  58
  53	  59
  53	  60
  53	  63
  53	  64
  53	  71
  53	  73
  53	  74
  53	  76
  53	  79
  53	  82
  53	  84
  53	  87
  53	  89
  53	  90
  53	  92
  53	  96
  53	  97
  53	  99
  53	 102
  53	 104
  53	 105
  53	 107
  53	 108
  53	 116
  54	  56
  54	  57
  54	  58
  54	  60
  54	  61
  54	  62
  54	  63
  54	  70
  54	  71
  54	  76
  54	  77
  54	  80
  54	  85
  54	  87
  54	  88
  54	  89
  54	  90
  54	  91
  54	  93
  54	  95
  54	  99
  54	 100
  54	 102
  54	 103
  54	 104
  54	 105
  54	 107
  54	 108
  54	 112
  54	 118
  55	  58
  55	  60
  55	  61
  55	  63
  55	  64
  55	  65
  55	  68
  55	  74
  55	  75
  55	  76
  55	  84
  55	  89
  55	  92
  55	  96
  55	  97
  55	 107
  55	 108
  55	 110
  55	 111
  55	 117
  56	  59
  56	  60
  56	  66
  56	  67
  56	  70
  56	  71
  56	  77
  56	  82
  56	  84
  56	  86
  56	  87
  56	  88
  56	  91
  56	  93
  56	  94
  56	  95
  56	  99
  56	 100
  56	 101
  56	 102
  56	 103
  56	 104
  56	 107
  56	 108
  56	 110
  56	 111
  56	 112
  57	  58
  57	  60
  57	  63
  57	  64
  57	  66
  57	  71
  57	  77
  57	  78
  57	  81
  57	  83
  57	  84
  57	  85
  57	  88
  57	  89
  57	  90
  57	  92
  57	  93
  57	  95
  57	  96
  57	  98
  57	 105
  57	 108
  57	 110
  57	 112
  57	 113
  57	 114
  58	  59
  58	  60
  58	  61
  58	  62
  58	  65
  58	  66
  58	  70
  58	  71
  58	  72
  58	  73
  58	  76
  58	  80
  58	  82
  58	  84
  58	  85
  58	  87
  58	  88
  58	  99
  58	 104
  58	 105
  58	 106
  58	 108
  58	 109
  58	 110
  58	 117
  59	  65
  59	  68
  59	  69
  59	  71
  59	  73
  59	  75
  59	  76
  59	  79
  59	  82
  59	  85
  59	  86
  59	  87
  59	  88
  59	  89
  59	  90
  59	  91
  59	  92
  59	  95
  59	  98
  59	 102
  59	 105
  59	 107
  59	 109
  59	 114
  59	 118
  59	 119
  60	  63
  60	  65
  60	  66
  60	  68
  60	  70
  60	  71
  60	  73
  60	  74
  60	  76
  60	  77
  60	  78
  60	  79
  60	  83
  60	  84
  60	  86
  60	  89
  60	  90
  60	  92
  60	  95
  60	  96
  60	 101
  60	 103
  60	 104
  60	 107
  60	 111
  60	 114
  60	 116
  60	 117
  60	 119
  61	  63
  61	  68
  61	  72
  61	  77
  61	  80
  61	  82
  61	  86
  61	  87
  61	  88
  61	  90
  61	  92
  61	  93
  61	  94
  61	  95
  61	  96
  61	  97
  61	  98
  61	 101
  61	 102
  61	 103
  61	 105
  61	 114
  62	  64
  62	  65
  62	  69
  62	  70
  62	  72
  62	  73
  62	  80
  62	  83
  62	  84
  62	  87
  62	  89
  62	  97
  62	 101
  62	 102
  62	 103
  62	 104
  62	 110
  62	 112
  62	 113
  62	 115
  62	 116
  62	 117
  62	 118
  63	  64
  63	  65
  63	  66
  63	  67
  63	  72
  63	  73
  63	  76
  63	  78
  63	  80
  63	  82
  63	  83
  63	  85
  63	  86
  63	  87
  63	  88
  63	  89
  63	  97
  63	 100
  63	 101
  63	 103
  63	 105
  63	 106
  63	 107
  63	 109
  63	 112
  63	 113
  63	 115
  63	 116
  63	 117
  64	  65
  64	  68
  64	  71
  64	  74
  64	  77
  64	  83
  64	  84
  64	  85
  64	  86
  64	  89
  64	  92
  64	  93
  64	 101
  64	 102
  64	 107
  64	 111
  64	 116
  64	 118
  64	 119
  65	  70
  65	  73
  65	  74
  65	  77
  65	  80
  65	  81
  65	  82
  65	  83
  65	  90
  65	  91
  65	  92
  65	  95
  65	  97
  65	 102
  65	 105
  65	 106
  65	 109
  65	 111
  65	 119
  66	  67
  66	  68
  66	  73
  66	  74
  66	  75
  66	  77
  66	  78
  66	  81
  66	  83
  66	  85
  66	  88
  66	  90
  66	  93
  66	  95
  66	 104
  66	 112
  66	 116
  67	  71
  67	  77
  67	  81
  67	  82
  67	  83
  67	  84
  67	  87
  67	  90
  67	  91
  67	  92
  67	  93
  67	  94
  67	  95
  67	  96
  67	  97
  67	  99
  67	 100
  67	 101
  67	 102
  67	 104
  67	 105
  67	 106
  67	 107
  67	 108
  67	 109
  67	 112
  68	  69
  68	  71
  68	  73
  68	  74
  68	  75
  68	  76
  68	  77
  68	  80
  68	  81
  68	  82
  68	  85
  68	  94
  68	  95
  68	  99
  68	 101
  68	 105
  68	 110
  69	  70
  69	  73
  69	  75
  69	  80
  69	  81
  69	  90
  69	  94
  69	  95
  69	  96
  69	  98
  69	 100
  69	 101
  69	 105
  69	 109
  69	 112
  69	 115
  69	 117
  70	  71
  70	  73
  70	  74
  70	  75
  70	  76
  70	  79
  70	  86
  70	  87
  70	  99
  70	 100
  70	 118
  70	 119
  71	  74
  71	  76
  71	  77
  71	  79
  71	  81
  71	  82
  71	  86
  71	  93
  71	 104
  71	 106
  71	 109
  71	 117
  71	 119
  72	  74
  72	  75
  72	  77
  72	  82
  72	  84
  72	  86
  72	  93
  72	  95
  72	  98
  72	 100
  72	 102
  72	 104
  72	 105
  72	 109
  72	 112
  72	 113
  72	 114
  72	 115
  72	 116
  72	 117
  73	  75
  73	  81
  73	  82
  73	  89
  73	  90
  73	  93
  73	  99
  73	 102
  73	 104
  73	 105
  73	 110
  73	 111
  73	 114
  73	 115
  74	  75
  74	  77
  74	  78
  74	  81
  74	  82
  74	  83
  74	  88
  74	  92
  74	  94
  74	  95
  74	  97
  74	  98
  74	 102
  74	 103
  74	 104
  74	 106
  74	 108
  74	 114
  74	 115
  74	 116
  74	 117
  74	 119
  75	  76
  75	  79
  75	  80
  75	  90
  75	  91
  75	  94
  75	  95
  75	 100
  75	 101
  75	 105
  75	 107
  75	 108
  75	 109
  75	 112
  75	 114
  75	 115
  75	 116
  75	 117
  76	  79
  76	  83
  76	  84
  76	  85
  76	  88
  76	  92
  76	  95
  76	 100
  76	 106
  76	 108
  76	 111
  76	 115
  76	 116
  76	 117
  76	 118
  77	  78
  77	  79
  77	  80
  77	  82
  77	  84
  77	  87
  77	  88
  77	  89
  77	  90
  77	  92
  77	  93
  77	  95
  77	  99
  77	 102
  77	 103
  77	 108
  77	 109
  77	 111
  77	 115
  77	 116
  77	 119
  78	  83
  78	  84
  78	  89
  78	  90
  78	  96
  78	  98
  78	  99
  78	 103
  78	 108
  78	 114
  79	  80
  79	  83
  79	  86
  79	  89
  79	  90
  79	  95
  79	  97
  79	  98
  79	  99
  79	 101
  79	 111
  79	 115
  79	 116
  79	 119
  80	  81
  80	  82
  80	  88
  80	  92
  80	  94
  80	  95
  80	  97
  80	  98
  80	 100
  80	 101
  80	 103
  80	 104
  80	 105
  80	 111
  80	 112
  80	 113
  80	 114
  80	 115
  80	 117
  80	 119
  81	  82
  81	  83
  81	  87
  81	  88
  81	  91
  81	  92
  81	  94
  81	 100
  81	 102
  81	 105
  81	 107
  81	 111
  81	 114
  81	 115
  81	 116
  82	  83
  82	  85
  82	  87
  82	  88
  82	  96
  82	 100
  82	 103
  82	 104
  82	 105
  82	 108
  82	 110
  82	 113
  82	 114
  82	 116
  82	 117
  82	 119
  83	  86
  83	  88
  83	  92
  83	  95
  83	  96
  83	  97
  83	  98
  83	  99
  83	 105
  83	 109
  83	 113
  83	 114
  83	 117
  83	 119
  84	  87
  84	  89
  84	  90
  84	  92
  84	  95
  84	 103
  84	 108
  84	 111
  84	 116
  85	  86
  85	  89
  85	  91
  85	  95
  85	  96
  85	  97
  85	 100
  85	 101
  85	 102
  85	 104
  85	 105
  85	 106
  85	 107
  85	 111
  86	  87
  86	  88
  86	  89
  86	  90
  86	  93
  86	  94
  86	  96
  86	  99
  86	 101
  86	 103
  86	 105
  86	 108
  86	 110
  86	 113
  86	 114
  86	 116
  86	 117
  86	 119
  87	  88
  87	  89
  87	  92
  87	  93
  87	  95
  87	  98
  87	  99
  87	 101
  87	 102
  87	 104
  87	 105
  87	 107
  87	 108
  87	 113
  87	 114
  88	  90
  88	  91
  88	  95
  88	 100
  88	 101
  88	 102
  88	 103
  88	 104
  88	 105
  88	 106
  88	 108
  88	 109
  88	 110
  88	 112
  88	 115
  88	 116
  88	 117
  88	 118
  89	  92
  89	  93
  89	  95
  89	  97
  89	 102
  89	 103
  89	 104
  89	 105
  89	 107
  89	 111
  89	 113
  89	 116
  89	 118
  90	  91
  90	  94
  90	 100
  90	 105
  90	 106
  90	 108
  90	 111
  90	 114
  90	 117
  91	  93
  91	  94
  91	  97
  91	  99
  91	 102
  91	 105
  91	 106
  91	 108
  91	 109
  91	 112
  91	 117
  91	 119
  92	  98
  92	 101
  92	 104
  92	 110
  92	 111
  92	 114
  92	 115
  92	 116
  92	 119
  93	  95
  93	  96
  93	  99
  93	 101
  93	 103
  93	 104
  93	 107
  93	 108
  93	 111
  93	 112
  93	 113
  94	  95
  94	  98
  94	 100
  94	 109
  94	 111
  94	 112
  94	 114
  94	 116
  94	 117
  95	  96
  95	 101
  95	 102
  95	 103
  95	 104
  95	 105
  95	 107
  95	 110
  95	 112
  95	 113
  96	  97
  96	  98
  96	  99
  96	 101
  96	 102
  96	 104
  96	 108
  96	 109
  96	 111
  96	 112
  96	 113
  96	 115
  96	 117
  97	  98
  97	  99
  97	 103
  97	 107
  97	 112
  97	 119
  98	  99
  98	 101
  98	 104
  98	 105
  98	 107
  98	 108
  98	 110
  98	 111
  98	 114
  98	 115
  98	 118
  99	 102
  99	 108
  99	 112
  99	 114
  99	 115
  99	 117
 100	 103
 100	 105
 100	 106
 100	 107
 100	 111
 100	 119
 101	 102
 101	 111
 101	 112
 101	 116
 101	 119
 102	 106
 102	 108
 102	 112
 102	 115
 102	 116
 102	 118
 103	 104
 103	 107
 103	 108
 103	 109
 103	 111
 103	 112
 103	 113
 103	 115
 103	 119
 104	 105
 104	 107
 104	 109
 104	 110
 104	 111
 104	 113
 104	 117
 105	 108
 105	 109
 105	 113
 106	 108
 106	 112
 106	 114
 106	 118
 107	 110
 107	 111
 107	 113
 107	 114
 107	 116
 107	 117
 107	 119
 108	 111
 108	 113
 108	 114
 108	 115
 109	 110
 109	 111
 109	 112
 109	 115
 109	 117
 109	 118
 109	 119
 110	 111
 110	 112
 110	 114
 110	 116
 111	 112
 111	 113
 111	 114
 111	 115
 111	 116
 111	 117
 112	 113
 112	 117
 112	 119
 113	 115
 113	 116
 113	 119
 114	 115
 114	 116
 114	 118
 114	 119
 115	 116
 115	 119
 118	 119
;
